p cnf 1016
-2 -35
-3 -38
-4 -41
-5 -44
-6 -47
-7 -51
-8 -55
-9 -59
-10 -63
-11 -67
-12 -71
-13 -75
-14 -79
-15 -83
-16 -87
-17 -91
-18 -95
-19 -99
-20 -103
-21 -2
-21 3
2 -3 21
-22 2
-22 -3
-2 3 22
-23 -21
-23 -22
21 22 23
-24 2
-24 3
-2 -3 24
-25 4
-25 -24
-4 24 25
-26 -4
-26 24
4 -24 26
-27 -25
-27 -26
25 26 27
-28 4
-28 24
-4 -24 28
-29 5
-29 -28
-5 28 29
-30 -5
-30 28
5 -28 30
-31 -29
-31 -30
29 30 31
-32 5
-32 28
-5 -28 32
-33 1
-33 -2
-1 2 33
-34 -1
-34 2
1 -2 34
-35 -33
-35 -34
33 34 35
-36 1
-36 -23
-1 23 36
-37 -1
-37 3
1 -3 37
-38 -36
-38 -37
36 37 38
-39 1
-39 -27
-1 27 39
-40 -1
-40 4
1 -4 40
-41 -39
-41 -40
39 40 41
-42 1
-42 -31
-1 31 42
-43 -1
-43 5
1 -5 43
-44 -42
-44 -43
42 43 44
-45 1
-45 -20
-1 20 45
-46 -1
-46 6
1 -6 46
-47 -45
-47 -46
45 46 47
-48 6
-48 -20
-6 20 48
-49 1
-49 48
-1 -48 49
-50 -1
-50 7
1 -7 50
-51 -49
-51 -50
49 50 51
-52 7
-52 -20
-7 20 52
-53 1
-53 52
-1 -52 53
-54 -1
-54 8
1 -8 54
-55 -53
-55 -54
53 54 55
-56 8
-56 -20
-8 20 56
-57 1
-57 56
-1 -56 57
-58 -1
-58 9
1 -9 58
-59 -57
-59 -58
57 58 59
-60 9
-60 -20
-9 20 60
-61 1
-61 60
-1 -60 61
-62 -1
-62 10
1 -10 62
-63 -61
-63 -62
61 62 63
-64 10
-64 -20
-10 20 64
-65 1
-65 64
-1 -64 65
-66 -1
-66 11
1 -11 66
-67 -65
-67 -66
65 66 67
-68 11
-68 -20
-11 20 68
-69 1
-69 68
-1 -68 69
-70 -1
-70 12
1 -12 70
-71 -69
-71 -70
69 70 71
-72 12
-72 -20
-12 20 72
-73 1
-73 72
-1 -72 73
-74 -1
-74 13
1 -13 74
-75 -73
-75 -74
73 74 75
-76 13
-76 -20
-13 20 76
-77 1
-77 76
-1 -76 77
-78 -1
-78 14
1 -14 78
-79 -77
-79 -78
77 78 79
-80 14
-80 -20
-14 20 80
-81 1
-81 80
-1 -80 81
-82 -1
-82 15
1 -15 82
-83 -81
-83 -82
81 82 83
-84 15
-84 -20
-15 20 84
-85 1
-85 84
-1 -84 85
-86 -1
-86 16
1 -16 86
-87 -85
-87 -86
85 86 87
-88 16
-88 -20
-16 20 88
-89 1
-89 88
-1 -88 89
-90 -1
-90 17
1 -17 90
-91 -89
-91 -90
89 90 91
-92 17
-92 -20
-17 20 92
-93 1
-93 92
-1 -92 93
-94 -1
-94 18
1 -18 94
-95 -93
-95 -94
93 94 95
-96 18
-96 -20
-18 20 96
-97 1
-97 96
-1 -96 97
-98 -1
-98 19
1 -19 98
-99 -97
-99 -98
97 98 99
-100 19
-100 -20
-19 20 100
-101 1
-101 100
-1 -100 101
-102 -1
-102 20
1 -20 102
-103 -101
-103 -102
101 102 103
-104 6
-104 -7
-6 7 104
-105 -6
-105 7
6 -7 105
-106 -104
-106 -105
104 105 106
-107 6
-107 7
-6 -7 107
-108 -8
-108 -106
8 106 108
-109 8
-109 106
-8 -106 109
-110 -108
-110 -109
108 109 110
-111 8
-111 -106
-8 106 111
-112 107
-112 -111
-107 111 112
-113 -107
-113 111
107 -111 113
-114 -112
-114 -113
112 113 114
-115 107
-115 111
-107 -111 115
-116 -9
-116 -110
9 110 116
-117 9
-117 110
-9 -110 117
-118 -116
-118 -117
116 117 118
-119 9
-119 -110
-9 110 119
-120 -115
-120 -118
115 118 120
-121 115
-121 118
-115 -118 121
-122 -120
-122 -121
120 121 122
-123 115
-123 -118
-115 118 123
-124 -119
-124 -123
119 123 124
-125 -114
-125 124
114 -124 125
-126 114
-126 -124
-114 124 126
-127 -125
-127 -126
125 126 127
-128 -114
-128 -124
114 124 128
-129 -10
-129 -122
10 122 129
-130 10
-130 122
-10 -122 130
-131 -129
-131 -130
129 130 131
-132 10
-132 -122
-10 122 132
-133 -127
-133 -132
127 132 133
-134 127
-134 132
-127 -132 134
-135 -133
-135 -134
133 134 135
-136 -127
-136 132
127 -132 136
-137 128
-137 -136
-128 136 137
-138 -128
-138 136
128 -136 138
-139 -137
-139 -138
137 138 139
-140 128
-140 136
-128 -136 140
-141 -11
-141 -131
11 131 141
-142 11
-142 131
-11 -131 142
-143 -141
-143 -142
141 142 143
-144 11
-144 -131
-11 131 144
-145 -140
-145 -143
140 143 145
-146 140
-146 143
-140 -143 146
-147 -145
-147 -146
145 146 147
-148 140
-148 -143
-140 143 148
-149 -144
-149 -148
144 148 149
-150 -135
-150 149
135 -149 150
-151 135
-151 -149
-135 149 151
-152 -150
-152 -151
150 151 152
-153 -135
-153 -149
135 149 153
-154 -139
-154 -153
139 153 154
-155 139
-155 153
-139 -153 155
-156 -154
-156 -155
154 155 156
-157 -139
-157 153
139 -153 157
-158 -12
-158 -147
12 147 158
-159 12
-159 147
-12 -147 159
-160 -158
-160 -159
158 159 160
-161 12
-161 -147
-12 147 161
-162 -157
-162 -160
157 160 162
-163 157
-163 160
-157 -160 163
-164 -162
-164 -163
162 163 164
-165 157
-165 -160
-157 160 165
-166 -161
-166 -165
161 165 166
-167 -152
-167 166
152 -166 167
-168 152
-168 -166
-152 166 168
-169 -167
-169 -168
167 168 169
-170 -152
-170 -166
152 166 170
-171 -156
-171 -170
156 170 171
-172 156
-172 170
-156 -170 172
-173 -171
-173 -172
171 172 173
-174 -156
-174 170
156 -170 174
-175 -13
-175 -164
13 164 175
-176 13
-176 164
-13 -164 176
-177 -175
-177 -176
175 176 177
-178 13
-178 -164
-13 164 178
-179 -174
-179 -177
174 177 179
-180 174
-180 177
-174 -177 180
-181 -179
-181 -180
179 180 181
-182 174
-182 -177
-174 177 182
-183 -178
-183 -182
178 182 183
-184 -169
-184 183
169 -183 184
-185 169
-185 -183
-169 183 185
-186 -184
-186 -185
184 185 186
-187 -169
-187 -183
169 183 187
-188 -173
-188 -187
173 187 188
-189 173
-189 187
-173 -187 189
-190 -188
-190 -189
188 189 190
-191 -173
-191 187
173 -187 191
-192 -14
-192 -181
14 181 192
-193 14
-193 181
-14 -181 193
-194 -192
-194 -193
192 193 194
-195 14
-195 -181
-14 181 195
-196 -186
-196 -195
186 195 196
-197 186
-197 195
-186 -195 197
-198 -196
-198 -197
196 197 198
-199 -186
-199 195
186 -195 199
-200 -190
-200 -199
190 199 200
-201 190
-201 199
-190 -199 201
-202 -200
-202 -201
200 201 202
-203 -190
-203 199
190 -199 203
-204 191
-204 -203
-191 203 204
-205 -191
-205 203
191 -203 205
-206 -204
-206 -205
204 205 206
-207 191
-207 203
-191 -203 207
-208 -15
-208 -194
15 194 208
-209 15
-209 194
-15 -194 209
-210 -208
-210 -209
208 209 210
-211 15
-211 -194
-15 194 211
-212 -207
-212 -210
207 210 212
-213 207
-213 210
-207 -210 213
-214 -212
-214 -213
212 213 214
-215 207
-215 -210
-207 210 215
-216 -211
-216 -215
211 215 216
-217 -198
-217 216
198 -216 217
-218 198
-218 -216
-198 216 218
-219 -217
-219 -218
217 218 219
-220 -198
-220 -216
198 216 220
-221 -202
-221 -220
202 220 221
-222 202
-222 220
-202 -220 222
-223 -221
-223 -222
221 222 223
-224 -202
-224 220
202 -220 224
-225 -206
-225 -224
206 224 225
-226 206
-226 224
-206 -224 226
-227 -225
-227 -226
225 226 227
-228 -206
-228 224
206 -224 228
-229 -16
-229 -214
16 214 229
-230 16
-230 214
-16 -214 230
-231 -229
-231 -230
229 230 231
-232 16
-232 -214
-16 214 232
-233 -228
-233 -231
228 231 233
-234 228
-234 231
-228 -231 234
-235 -233
-235 -234
233 234 235
-236 228
-236 -231
-228 231 236
-237 -232
-237 -236
232 236 237
-238 -219
-238 237
219 -237 238
-239 219
-239 -237
-219 237 239
-240 -238
-240 -239
238 239 240
-241 -219
-241 -237
219 237 241
-242 -223
-242 -241
223 241 242
-243 223
-243 241
-223 -241 243
-244 -242
-244 -243
242 243 244
-245 -223
-245 241
223 -241 245
-246 -227
-246 -245
227 245 246
-247 227
-247 245
-227 -245 247
-248 -246
-248 -247
246 247 248
-249 -227
-249 245
227 -245 249
-250 -17
-250 -235
17 235 250
-251 17
-251 235
-17 -235 251
-252 -250
-252 -251
250 251 252
-253 17
-253 -235
-17 235 253
-254 -249
-254 -252
249 252 254
-255 249
-255 252
-249 -252 255
-256 -254
-256 -255
254 255 256
-257 249
-257 -252
-249 252 257
-258 -253
-258 -257
253 257 258
-259 -240
-259 258
240 -258 259
-260 240
-260 -258
-240 258 260
-261 -259
-261 -260
259 260 261
-262 -240
-262 -258
240 258 262
-263 -244
-263 -262
244 262 263
-264 244
-264 262
-244 -262 264
-265 -263
-265 -264
263 264 265
-266 -244
-266 262
244 -262 266
-267 -248
-267 -266
248 266 267
-268 248
-268 266
-248 -266 268
-269 -267
-269 -268
267 268 269
-270 -248
-270 266
248 -266 270
-271 -18
-271 -256
18 256 271
-272 18
-272 256
-18 -256 272
-273 -271
-273 -272
271 272 273
-274 18
-274 -256
-18 256 274
-275 -270
-275 -273
270 273 275
-276 270
-276 273
-270 -273 276
-277 -275
-277 -276
275 276 277
-278 270
-278 -273
-270 273 278
-279 -274
-279 -278
274 278 279
-280 -261
-280 279
261 -279 280
-281 261
-281 -279
-261 279 281
-282 -280
-282 -281
280 281 282
-283 -261
-283 -279
261 279 283
-284 -265
-284 -283
265 283 284
-285 265
-285 283
-265 -283 285
-286 -284
-286 -285
284 285 286
-287 -265
-287 283
265 -283 287
-288 -269
-288 -287
269 287 288
-289 269
-289 287
-269 -287 289
-290 -288
-290 -289
288 289 290
-291 -269
-291 287
269 -287 291
-292 -19
-292 -277
19 277 292
-293 19
-293 277
-19 -277 293
-294 -292
-294 -293
292 293 294
-295 19
-295 -277
-19 277 295
-296 -291
-296 -294
291 294 296
-297 291
-297 294
-291 -294 297
-298 -296
-298 -297
296 297 298
-299 291
-299 -294
-291 294 299
-300 -295
-300 -299
295 299 300
-301 -282
-301 300
282 -300 301
-302 282
-302 -300
-282 300 302
-303 -301
-303 -302
301 302 303
-304 -282
-304 -300
282 300 304
-305 -286
-305 -304
286 304 305
-306 286
-306 304
-286 -304 306
-307 -305
-307 -306
305 306 307
-308 -286
-308 304
286 -304 308
-309 -290
-309 -308
290 308 309
-310 290
-310 308
-290 -308 310
-311 -309
-311 -310
309 310 311
-312 -290
-312 308
290 -308 312
-313 -20
-313 -298
20 298 313
-314 20
-314 298
-20 -298 314
-315 -313
-315 -314
313 314 315
-316 20
-316 -298
-20 298 316
-317 -312
-317 -315
312 315 317
-318 312
-318 315
-312 -315 318
-319 -317
-319 -318
317 318 319
-320 312
-320 -315
-312 315 320
-321 -316
-321 -320
316 320 321
-322 -303
-322 321
303 -321 322
-323 303
-323 -321
-303 321 323
-324 -322
-324 -323
322 323 324
-325 -303
-325 -321
303 321 325
-326 -307
-326 -325
307 325 326
-327 307
-327 325
-307 -325 327
-328 -326
-328 -327
326 327 328
-329 -307
-329 325
307 -325 329
-330 -311
-330 -329
311 329 330
-331 311
-331 329
-311 -329 331
-332 -330
-332 -331
330 331 332
-333 -311
-333 329
311 -329 333
-334 2
-334 -319
-2 319 334
-335 -2
-335 319
2 -319 335
-336 -334
-336 -335
334 335 336
-337 3
-337 -324
-3 324 337
-338 -3
-338 324
3 -324 338
-339 -337
-339 -338
337 338 339
-340 4
-340 -328
-4 328 340
-341 -4
-341 328
4 -328 341
-342 -340
-342 -341
340 341 342
-343 5
-343 -332
-5 332 343
-344 -5
-344 332
5 -332 344
-345 -343
-345 -344
343 344 345
-346 -336
-346 -339
336 339 346
-347 -342
-347 -345
342 345 347
-348 346
-348 347
-346 -347 348
-349 -20
-349 32
20 -32 349
-350 20
-350 -32
-20 32 350
-351 -349
-351 -350
349 350 351
-352 348
-352 351
-348 -351 352
-352
